p tw 25 106
1 8
1 12
1 13
1 25
1 19
1 3
1 4
1 6
1 7
1 5
1 16
1 21
2 14
2 18
2 22
2 15
2 20
2 25
5 17
5 11
5 12
5 14
5 15
5 16
11 18
11 16
11 12
11 14
11 15
11 17
12 17
12 14
12 15
12 18
14 18
14 15
16 17
16 18
17 18
13 25
13 23
13 20
13 24
19 9
19 14
19 20
19 7
19 3
19 4
19 6
19 8
19 11
19 17
19 22
20 24
20 25
21 22
21 23
21 24
21 25
22 23
22 24
22 25
23 24
23 25
24 25
3 10
3 15
3 8
3 5
3 4
3 6
3 9
3 12
3 18
4 9
4 11
4 16
4 6
4 10
4 14
6 10
6 12
6 17
6 15
7 11
7 18
7 8
7 9
7 10
7 16
8 12
8 9
8 10
8 11
8 17
9 14
9 11
9 16
9 10
9 12
9 18
10 15
10 12
10 17
10 14
